%SETS
JOBS     = 1..3;
MACHINES = 1..15;
SPEED    = 1;

time               = array3d(JOBS,MACHINES,1..SPEED,[17, 11, 84, 80, 88, 98, 81, 51, 80, 20, 67, 22, 95, 56, 47, 33, 79, 51, 61, 11, 65, 65, 65, 94, 71, 42, 49, 72, 15, 70, 70, 28, 21, 38, 42, 61, 49, 98, 19, 28, 24, 68, 32, 51, 31]);
energy             = array3d(JOBS,MACHINES,1..SPEED,[84, 89, 43, 44, 41, 37, 44, 60, 44, 81, 51, 80, 38, 57, 62, 71, 45, 60, 54, 89, 52, 52, 52, 39, 49, 65, 61, 48, 86, 49, 49, 75, 81, 68, 65, 54, 61, 37, 82, 75, 78, 50, 72, 60, 73]);
precedence         = array2d(JOBS,MACHINES,[10,9,2,6,1,12,0,14,4,7,5,8,11,13,3,13,6,14,12,3,7,1,8,0,5,10,4,2,9,11,0,3,12,9,4,1,6,14,5,11,7,13,10,8,2]);